c User generated cnf file
p cnf 7 17
7 3 -2 0 
6 2 -3 0 
2 -2 4 0 
7 -7 5 0 
-5 7 4 0 
-4 1 2 0 
-3 1 3 0 
4 -7 3 0 
1 6 -1 0 
2 -3 4 0 
-7 1 6 0 
4 -7 6 0 
-5 6 4 0 
4 3 -3 0 
-3 3 7 0 
3 -4 7 0 
6 -6 3 0 
